(set-logic QF_S)
(declare-fun var0 () String)
(declare-fun var1 () String)
(declare-fun var2 () String)
(declare-fun var3 () String)
(declare-fun var4 () String)
(declare-fun var5 () String)
(declare-fun var6 () String)
(declare-fun var7 () String)
(declare-fun var8 () String)
(declare-fun var9 () String)
(declare-fun var10 () String)
(declare-fun var11 () String)
(declare-fun var12 () String)
(declare-fun var13 () String)
(declare-fun var14 () String)
(declare-fun var15 () String)
(declare-fun var16 () String)
(declare-fun var17 () String)
(declare-fun var18 () String)
(declare-fun var19 () String)
(declare-fun var20 () String)
(declare-fun var21 () String)
(declare-fun var22 () String)
(declare-fun var23 () String)
(declare-fun var24 () String)
(declare-fun var25 () String)
(declare-fun var26 () String)
(declare-fun var27 () String)
(declare-fun var28 () String)
(declare-fun var29 () String)
(declare-fun var30 () String)
(declare-fun var31 () String)
(declare-fun var32 () String)
(declare-fun var33 () String)
(declare-fun var34 () String)
(declare-fun var35 () String)
(declare-fun var36 () String)
(declare-fun var37 () String)
(declare-fun var38 () String)
(declare-fun var39 () String)
(declare-fun var40 () String)
(declare-fun var41 () String)
(declare-fun var42 () String)
(declare-fun var43 () String)
(declare-fun var44 () String)
(declare-fun var45 () String)
(declare-fun var46 () String)
(declare-fun var47 () String)
(declare-fun var48 () String)
(declare-fun var49 () String)
(declare-fun var50 () String)
(declare-fun var51 () String)
(declare-fun var52 () String)
(declare-fun var53 () String)
(declare-fun var54 () String)
(declare-fun var55 () String)
(declare-fun var56 () String)
(declare-fun var57 () String)
(declare-fun var58 () String)
(declare-fun var59 () String)
(declare-fun var60 () String)
(assert (= var0 (Concat var1 var2)))
(assert (= var2 (Concat var3 var4)))
(assert (= var4 (Concat var5 var6)))
(assert (= var6 (Concat var7 var8)))
(assert (= var8 (Concat var9 var10)))
(assert (= var10 (Concat var11 var12)))
(assert (= var12 (Concat var13 var14)))
(assert (= var14 (Concat var15 var16)))
(assert (= var16 (Concat var17 var18)))
(assert (= var18 (Concat var19 var20)))
(assert (= var20 (Concat var21 var22)))
(assert (= var22 (Concat var23 var24)))
(assert (= var24 (Concat var25 var26)))
(assert (= var26 (Concat var27 var28)))
(assert (= var28 (Concat var29 var30)))
(assert (= var30 (Concat var31 var32)))
(assert (= var32 (Concat var33 var34)))
(assert (= var34 (Concat var35 var36)))
(assert (= var36 (Concat var37 var38)))
(assert (= var38 (Concat var39 var40)))
(assert (= var40 (Concat var41 var42)))
(assert (= var42 (Concat var43 var44)))
(assert (= var44 (Concat var45 var46)))
(assert (= var46 (Concat var47 var48)))
(assert (= var48 (Concat var49 var50)))
(assert (= var50 (Concat var51 var52)))
(assert (= var52 (Concat var53 var54)))
(assert (= var54 (Concat var55 var56)))
(assert (= var56 (Concat var57 var58)))
(assert (= var58 (Concat var59 var60)))
(assert (= var0 "solution"))
(assert (= "@" (CharAt var4 734)))
(assert (= "o" (CharAt var56 42)))
(assert (= "D" (CharAt var29 722)))
(assert (= "9" (CharAt var49 107)))
(assert (= "{" (CharAt var25 953)))
(assert (= "B" (CharAt var35 947)))
(assert (= "8" (CharAt var50 753)))
(assert (= "D" (CharAt var41 37)))
(assert (= "V" (CharAt var13 121)))
(assert (= "f" (CharAt var53 401)))
(assert (= "E" (CharAt var53 234)))
(assert (= "y" (CharAt var58 777)))
(assert (= "W" (CharAt var46 291)))
(assert (= "t" (CharAt var55 124)))
(assert (= ">" (CharAt var13 539)))
(assert (= "B" (CharAt var17 399)))
(assert (= "&" (CharAt var39 818)))
(assert (= "$" (CharAt var0 219)))
(assert (= "5" (CharAt var28 658)))
(assert (= "k" (CharAt var45 842)))
(assert (= "m" (CharAt var37 660)))
(assert (= "@" (CharAt var42 910)))
(assert (= "3" (CharAt var31 734)))
(assert (= "@" (CharAt var21 674)))
(assert (= "p" (CharAt var41 117)))
(assert (= "E" (CharAt var29 34)))
(assert (= "A" (CharAt var57 785)))
(assert (= "[" (CharAt var38 420)))
(assert (= "s" (CharAt var43 588)))
(assert (= "U" (CharAt var32 376)))
(assert (= "j" (CharAt var17 676)))
(assert (= "1" (CharAt var46 10)))
(assert (= "B" (CharAt var51 592)))
(assert (= "z" (CharAt var54 634)))
(assert (= "_" (CharAt var30 171)))
(assert (= "*" (CharAt var4 25)))
(assert (= "%" (CharAt var9 462)))
(assert (= "." (CharAt var21 201)))
(assert (= "i" (CharAt var58 349)))
(assert (= "d" (CharAt var11 147)))
(assert (= "x" (CharAt var10 394)))
(assert (= "." (CharAt var38 194)))
(assert (= "^" (CharAt var54 863)))
(assert (= "C" (CharAt var44 680)))
(assert (= "{" (CharAt var34 671)))
(assert (= "+" (CharAt var11 162)))
(assert (= "h" (CharAt var6 886)))
(assert (= "K" (CharAt var55 871)))
(assert (= "q" (CharAt var15 795)))
(assert (= "d" (CharAt var22 925)))
(assert (= "`" (CharAt var51 752)))
(assert (= "g" (CharAt var2 757)))
(assert (= "u" (CharAt var17 468)))
(assert (= "-" (CharAt var12 736)))
(assert (= "t" (CharAt var8 800)))
(assert (= "g" (CharAt var43 459)))
(assert (= ">" (CharAt var8 97)))
(assert (= "*" (CharAt var36 944)))
(assert (= "S" (CharAt var5 448)))
(assert (= "3" (CharAt var18 261)))
(assert (= "j" (CharAt var18 374)))
(assert (= "#" (CharAt var52 299)))
(assert (= "}" (CharAt var23 971)))
(assert (= "a" (CharAt var59 689)))
(assert (= "B" (CharAt var10 423)))
(assert (= "\"" (CharAt var24 306)))
(assert (= "." (CharAt var4 145)))
(assert (= "F" (CharAt var38 587)))
(assert (= "d" (CharAt var22 420)))
(assert (= "k" (CharAt var9 151)))
(assert (= "e" (CharAt var11 769)))
(assert (= "r" (CharAt var10 741)))
(assert (= "7" (CharAt var46 896)))
(assert (= "s" (CharAt var41 294)))
(assert (= "T" (CharAt var43 356)))
(assert (= "f" (CharAt var19 210)))
(assert (= "M" (CharAt var47 486)))
(assert (= "b" (CharAt var38 404)))
(assert (= "_" (CharAt var12 917)))
(assert (= "(" (CharAt var27 751)))
(assert (= "g" (CharAt var48 643)))
(assert (= "f" (CharAt var5 22)))
(assert (= "l" (CharAt var22 895)))
(assert (= "6" (CharAt var42 550)))
(assert (= ":" (CharAt var19 437)))
(assert (= "+" (CharAt var17 58)))
(assert (= "c" (CharAt var50 949)))
(assert (= "%" (CharAt var7 820)))
(assert (= "H" (CharAt var11 498)))
(assert (= "t" (CharAt var15 690)))
(assert (= "c" (CharAt var24 861)))
(assert (= "p" (CharAt var32 149)))
(assert (= "H" (CharAt var50 873)))
(assert (= "v" (CharAt var5 113)))
(assert (= "S" (CharAt var21 571)))
(assert (= "w" (CharAt var24 877)))
(assert (= "x" (CharAt var24 560)))
(assert (= "b" (CharAt var17 723)))
(assert (= "m" (CharAt var57 433)))
(assert (= "f" (CharAt var11 485)))
(assert (= "`" (CharAt var47 249)))
(assert (= "%" (CharAt var43 31)))
(assert (= "t" (CharAt var49 398)))
(assert (= "5" (CharAt var48 461)))
(assert (= "`" (CharAt var6 133)))
(assert (= "<" (CharAt var43 901)))
(assert (= "{" (CharAt var44 447)))
(assert (= "F" (CharAt var58 779)))
(assert (= "e" (CharAt var54 610)))
(assert (= "H" (CharAt var6 535)))
(assert (= "`" (CharAt var18 517)))
(assert (= "&" (CharAt var28 756)))
(assert (= "<" (CharAt var49 720)))
(assert (= "," (CharAt var58 506)))
(assert (= "m" (CharAt var25 468)))
(assert (= "c" (CharAt var41 982)))
(assert (= "&" (CharAt var24 794)))
(assert (= "T" (CharAt var43 677)))
(assert (= "C" (CharAt var4 976)))
(assert (= "0" (CharAt var41 100)))
(assert (= "*" (CharAt var15 476)))
(assert (= ":" (CharAt var44 607)))
(assert (= "w" (CharAt var26 814)))
(assert (= "Q" (CharAt var50 181)))
(assert (= "|" (CharAt var48 697)))
(assert (= "{" (CharAt var44 656)))
(assert (= "7" (CharAt var53 32)))
(assert (= "x" (CharAt var56 129)))
(assert (= "Y" (CharAt var44 246)))
(assert (= "h" (CharAt var38 619)))
(assert (= "7" (CharAt var45 738)))
(assert (= "f" (CharAt var39 227)))
(assert (= "a" (CharAt var18 751)))
(assert (= "c" (CharAt var46 603)))
(assert (= "H" (CharAt var11 362)))
(assert (= "l" (CharAt var41 492)))
(assert (= "{" (CharAt var60 869)))
(assert (= "7" (CharAt var23 407)))
(assert (= "q" (CharAt var1 863)))
(assert (= "%" (CharAt var13 94)))
(assert (= "[" (CharAt var28 136)))
(assert (= "5" (CharAt var46 286)))
(assert (= "*" (CharAt var57 875)))
(assert (= "!" (CharAt var35 261)))
(assert (= "y" (CharAt var60 421)))
(assert (= "r" (CharAt var25 142)))
(assert (= "*" (CharAt var48 215)))
(assert (= "y" (CharAt var48 986)))
(assert (= "\\" (CharAt var43 34)))
(assert (= "2" (CharAt var50 141)))
(assert (= "u" (CharAt var29 352)))
(assert (= "$" (CharAt var16 724)))
(assert (= "_" (CharAt var13 58)))
(assert (= "2" (CharAt var16 364)))
(assert (= "C" (CharAt var30 997)))
(assert (= "G" (CharAt var4 589)))
(assert (= "m" (CharAt var41 935)))
(assert (= "W" (CharAt var6 481)))
(assert (= "e" (CharAt var5 892)))
(assert (= "k" (CharAt var30 52)))
(assert (= "I" (CharAt var18 8)))
(assert (= "+" (CharAt var1 678)))
(assert (= "k" (CharAt var0 924)))
(assert (= "$" (CharAt var29 313)))
(assert (= "!" (CharAt var22 339)))
(assert (= "7" (CharAt var7 633)))
(assert (= "A" (CharAt var58 28)))
(assert (= "7" (CharAt var33 532)))
(assert (= "d" (CharAt var42 429)))
(assert (= "9" (CharAt var44 111)))
(assert (= "," (CharAt var44 477)))
(assert (= "c" (CharAt var47 810)))
(assert (= "N" (CharAt var13 657)))
(assert (= "l" (CharAt var2 357)))
(assert (= "i" (CharAt var52 307)))
(assert (= "F" (CharAt var41 956)))
(assert (= "D" (CharAt var26 342)))
(assert (= "+" (CharAt var28 92)))
(assert (= "v" (CharAt var57 681)))
(assert (= "8" (CharAt var46 737)))
(assert (= "," (CharAt var16 985)))
(assert (= ">" (CharAt var17 101)))
(assert (= "5" (CharAt var2 79)))
(assert (= "L" (CharAt var35 67)))
(assert (= "%" (CharAt var1 814)))
(assert (= "`" (CharAt var51 548)))
(assert (= "B" (CharAt var13 933)))
(assert (= "[" (CharAt var36 531)))
(assert (= "P" (CharAt var41 702)))
(assert (= "<" (CharAt var51 90)))
(assert (= "3" (CharAt var59 219)))
(assert (= "G" (CharAt var36 703)))
(assert (= "@" (CharAt var53 217)))
(assert (= ")" (CharAt var50 185)))
(assert (= "<" (CharAt var44 26)))
(assert (= "V" (CharAt var24 685)))
(assert (= ")" (CharAt var7 801)))
(assert (= ";" (CharAt var13 719)))
(assert (= "V" (CharAt var5 709)))
(assert (= "2" (CharAt var40 978)))
(assert (= "K" (CharAt var10 159)))
(assert (= "Y" (CharAt var45 721)))
(assert (= "5" (CharAt var4 776)))
(assert (= "p" (CharAt var26 787)))
(assert (= "4" (CharAt var48 906)))
(assert (= "C" (CharAt var23 425)))
(assert (= "(" (CharAt var20 38)))
(assert (= "|" (CharAt var54 51)))
(assert (= "8" (CharAt var36 335)))
(assert (= "[" (CharAt var4 378)))
(assert (= "Q" (CharAt var34 557)))
(assert (= "W" (CharAt var48 377)))
(assert (= "P" (CharAt var19 960)))
(assert (= "3" (CharAt var7 299)))
(assert (= "4" (CharAt var45 352)))
(assert (= "8" (CharAt var17 656)))
(assert (= "]" (CharAt var56 252)))
(assert (= "7" (CharAt var18 181)))
(assert (= "q" (CharAt var18 278)))
(assert (= ">" (CharAt var42 53)))
(assert (= "\\" (CharAt var32 420)))
(assert (= "A" (CharAt var21 511)))
(assert (= "W" (CharAt var60 691)))
(assert (= "u" (CharAt var1 571)))
(assert (= "Y" (CharAt var32 526)))
(assert (= "." (CharAt var52 806)))
(assert (= ">" (CharAt var12 93)))
(assert (= "j" (CharAt var45 441)))
(assert (= "V" (CharAt var60 521)))
(assert (= "c" (CharAt var37 391)))
(assert (= "q" (CharAt var41 420)))
(assert (= ":" (CharAt var47 466)))
(assert (= "x" (CharAt var1 291)))
(assert (= "8" (CharAt var18 199)))
(assert (= "h" (CharAt var26 346)))
(assert (= "P" (CharAt var31 703)))
(assert (= "{" (CharAt var22 505)))
(assert (= "L" (CharAt var57 55)))
(assert (= "r" (CharAt var28 634)))
(assert (= "s" (CharAt var37 37)))
(assert (= "C" (CharAt var14 515)))
(assert (= "6" (CharAt var2 603)))
(assert (= "#" (CharAt var16 567)))
(assert (= "e" (CharAt var52 295)))
(assert (= "N" (CharAt var52 940)))
(assert (= "u" (CharAt var20 347)))
(assert (= "'" (CharAt var58 603)))
(assert (= "e" (CharAt var48 346)))
(assert (= "/" (CharAt var13 63)))
(assert (= "e" (CharAt var18 290)))
(assert (= "&" (CharAt var56 773)))
(assert (= "1" (CharAt var47 976)))
(assert (= "-" (CharAt var56 620)))
(assert (= "*" (CharAt var49 747)))
(assert (= "A" (CharAt var15 799)))
(assert (= "1" (CharAt var48 729)))
(assert (= "\\" (CharAt var9 225)))
(assert (= "s" (CharAt var23 734)))
(assert (= ">" (CharAt var33 400)))
(assert (= "3" (CharAt var39 198)))
(assert (= "p" (CharAt var22 882)))
(assert (= "x" (CharAt var11 137)))
(assert (= "2" (CharAt var48 224)))
(assert (= "w" (CharAt var35 126)))
(assert (= "," (CharAt var56 167)))
(assert (= "O" (CharAt var49 883)))
(assert (= ">" (CharAt var1 698)))
(assert (= "(" (CharAt var20 870)))
(assert (= "V" (CharAt var24 992)))
(assert (= "P" (CharAt var0 571)))
(assert (= "D" (CharAt var48 324)))
(assert (= "W" (CharAt var51 718)))
(assert (= "t" (CharAt var52 402)))
(assert (= "v" (CharAt var4 759)))
(assert (= "." (CharAt var40 574)))
(assert (= "2" (CharAt var56 840)))
(assert (= "7" (CharAt var36 886)))
(assert (= "M" (CharAt var4 275)))
(assert (= "9" (CharAt var56 558)))
(assert (= "|" (CharAt var45 808)))
(assert (= "N" (CharAt var27 634)))
(assert (= "Y" (CharAt var14 523)))
(assert (= "x" (CharAt var14 883)))
(assert (= "!" (CharAt var36 51)))
(assert (= "s" (CharAt var16 655)))
(assert (= "\"" (CharAt var19 557)))
(assert (= "c" (CharAt var54 875)))
(assert (= "G" (CharAt var59 506)))
(assert (= "o" (CharAt var55 695)))
(assert (= "<" (CharAt var14 2)))
(assert (= "y" (CharAt var30 148)))
(assert (= "m" (CharAt var37 496)))
(assert (= "l" (CharAt var5 553)))
(assert (= "O" (CharAt var23 335)))
(assert (= "(" (CharAt var1 569)))
(assert (= "t" (CharAt var28 160)))
(assert (= "1" (CharAt var35 98)))
(assert (= "." (CharAt var26 427)))
(assert (= "G" (CharAt var4 432)))
(assert (= "o" (CharAt var21 652)))
(assert (= "a" (CharAt var55 507)))
(assert (= "w" (CharAt var55 31)))
(assert (= "=" (CharAt var31 561)))
(assert (= "]" (CharAt var34 895)))
(assert (= "i" (CharAt var56 463)))
(assert (= "+" (CharAt var8 138)))
(assert (= "-" (CharAt var6 350)))
(assert (= "*" (CharAt var0 906)))
(assert (= "(" (CharAt var49 684)))
(assert (= "U" (CharAt var6 146)))
(assert (= "." (CharAt var34 498)))
(assert (= "b" (CharAt var18 480)))
(assert (= "/" (CharAt var21 582)))
(assert (= "y" (CharAt var20 906)))
(assert (= "f" (CharAt var32 192)))
(assert (= "0" (CharAt var2 881)))
(assert (= "E" (CharAt var22 243)))
(assert (= "F" (CharAt var42 740)))
(assert (= "." (CharAt var16 173)))
(assert (= "m" (CharAt var20 218)))
(assert (= "0" (CharAt var50 481)))
(assert (= "E" (CharAt var21 305)))
(assert (= "v" (CharAt var22 971)))
(assert (= "O" (CharAt var22 977)))
(assert (= "J" (CharAt var50 205)))
(assert (= "`" (CharAt var28 233)))
(assert (= "'" (CharAt var51 598)))
(assert (= "(" (CharAt var34 143)))
(assert (= "h" (CharAt var5 658)))
(assert (= "r" (CharAt var19 574)))
(assert (= "B" (CharAt var32 894)))
(assert (= "3" (CharAt var36 994)))
(assert (= "{" (CharAt var42 523)))
(assert (= "d" (CharAt var26 466)))
(assert (= "7" (CharAt var49 706)))
(assert (= "{" (CharAt var32 229)))
(assert (= "c" (CharAt var26 904)))
(assert (= "s" (CharAt var20 730)))
(assert (= "Z" (CharAt var57 428)))
(assert (= "C" (CharAt var24 352)))
(assert (= "." (CharAt var1 975)))
(assert (= "\"" (CharAt var50 35)))
(assert (= "T" (CharAt var56 325)))
(assert (= "8" (CharAt var36 12)))
(assert (= "D" (CharAt var42 156)))
(assert (= "<" (CharAt var8 464)))
(assert (= "^" (CharAt var5 362)))
(assert (= "G" (CharAt var21 784)))
(assert (= "l" (CharAt var37 631)))
(assert (= "," (CharAt var6 334)))
(assert (= "E" (CharAt var29 471)))
(assert (= "O" (CharAt var2 381)))
(assert (= "j" (CharAt var7 512)))
(assert (= "F" (CharAt var40 179)))
(assert (= "K" (CharAt var34 744)))
(assert (= "H" (CharAt var39 602)))
(assert (= "T" (CharAt var54 808)))
(assert (= "," (CharAt var52 867)))
(assert (= "%" (CharAt var28 220)))
(assert (= "7" (CharAt var9 83)))
(assert (= "}" (CharAt var19 551)))
(assert (= ")" (CharAt var8 221)))
(assert (= "~" (CharAt var26 291)))
(assert (= "=" (CharAt var60 820)))
(assert (= "6" (CharAt var10 653)))
(assert (= "<" (CharAt var46 306)))
(assert (= "U" (CharAt var16 4)))
(assert (= "/" (CharAt var23 624)))
(assert (= "}" (CharAt var17 407)))
(assert (= "h" (CharAt var11 753)))
(assert (= "j" (CharAt var47 510)))
(assert (= "w" (CharAt var17 712)))
(assert (= "U" (CharAt var2 907)))
(assert (= "@" (CharAt var38 92)))
(assert (= "Z" (CharAt var1 134)))
(assert (= "4" (CharAt var57 21)))
(assert (= "W" (CharAt var51 346)))
(assert (= "o" (CharAt var31 216)))
(assert (= "j" (CharAt var9 169)))
(assert (= ")" (CharAt var46 880)))
(assert (= "K" (CharAt var18 992)))
(assert (= "K" (CharAt var21 405)))
(assert (= "N" (CharAt var34 790)))
(assert (= "j" (CharAt var38 38)))
(assert (= "C" (CharAt var25 943)))
(assert (= "D" (CharAt var12 306)))
(assert (= "c" (CharAt var38 383)))
(assert (= "U" (CharAt var51 748)))
(assert (= "a" (CharAt var27 391)))
(assert (= "O" (CharAt var23 397)))
(assert (= "K" (CharAt var8 60)))
(assert (= "g" (CharAt var16 396)))
(assert (= "4" (CharAt var10 449)))
(assert (= "Q" (CharAt var38 553)))
(assert (= "Z" (CharAt var5 285)))
(assert (= "\\" (CharAt var2 806)))
(assert (= "D" (CharAt var39 427)))
(assert (= "v" (CharAt var55 574)))
(assert (= "0" (CharAt var18 703)))
(assert (= "/" (CharAt var39 675)))
(assert (= "O" (CharAt var6 610)))
(assert (= "." (CharAt var12 734)))
(assert (= "h" (CharAt var57 762)))
(assert (= ")" (CharAt var38 477)))
(assert (= "*" (CharAt var31 616)))
(assert (= "!" (CharAt var44 245)))
(assert (= "8" (CharAt var56 980)))
(assert (= "s" (CharAt var47 591)))
(assert (= "n" (CharAt var9 287)))
(assert (= "b" (CharAt var3 204)))
(assert (= "." (CharAt var49 308)))
(assert (= "c" (CharAt var27 333)))
(assert (= "0" (CharAt var47 668)))
(assert (= "J" (CharAt var60 589)))
(assert (= "3" (CharAt var19 838)))
(assert (= "3" (CharAt var22 867)))
(assert (= "F" (CharAt var12 691)))
(assert (= "l" (CharAt var45 787)))
(assert (= "." (CharAt var53 969)))
(assert (= "," (CharAt var10 841)))
(assert (= "j" (CharAt var16 582)))
(assert (= "(" (CharAt var26 777)))
(assert (= "{" (CharAt var18 653)))
(assert (= "k" (CharAt var18 597)))
(assert (= "N" (CharAt var26 166)))
(assert (= "G" (CharAt var3 703)))
(assert (= "n" (CharAt var16 116)))
(assert (= "k" (CharAt var38 605)))
(assert (= "Q" (CharAt var25 444)))
(assert (= "X" (CharAt var41 17)))
(assert (= "7" (CharAt var15 429)))
(assert (= "l" (CharAt var42 11)))
(assert (= "8" (CharAt var45 656)))
(assert (= "\"" (CharAt var44 385)))
(assert (= "?" (CharAt var22 122)))
(assert (= "(" (CharAt var56 30)))
(assert (= ";" (CharAt var9 487)))
(assert (= "j" (CharAt var17 108)))
(assert (= "I" (CharAt var53 988)))
(assert (= "J" (CharAt var14 234)))
(assert (= "R" (CharAt var50 145)))
(assert (= "`" (CharAt var25 865)))
(assert (= "I" (CharAt var7 591)))
(assert (= "," (CharAt var27 428)))
(assert (= "j" (CharAt var21 491)))
(assert (= "0" (CharAt var37 94)))
(assert (= ")" (CharAt var28 64)))
(assert (= "[" (CharAt var50 189)))
(assert (= "+" (CharAt var5 877)))
(assert (= "q" (CharAt var19 329)))
(assert (= "Y" (CharAt var50 629)))
(assert (= "p" (CharAt var28 971)))
(assert (= "X" (CharAt var8 17)))
(assert (= "i" (CharAt var59 583)))
(assert (= "P" (CharAt var13 37)))
(assert (= "u" (CharAt var41 98)))
(assert (= "<" (CharAt var52 685)))
(assert (= "h" (CharAt var44 95)))
(assert (= "x" (CharAt var46 612)))
(assert (= "V" (CharAt var42 449)))
(assert (= "h" (CharAt var55 755)))
(assert (= "x" (CharAt var5 935)))
(assert (= "~" (CharAt var57 310)))
(assert (= "r" (CharAt var10 439)))
(assert (= "~" (CharAt var42 304)))
(assert (= "T" (CharAt var0 820)))
(assert (= "|" (CharAt var38 244)))
(assert (= "I" (CharAt var28 531)))
(assert (= "w" (CharAt var29 835)))
(assert (= "?" (CharAt var25 619)))
(assert (= "c" (CharAt var37 43)))
(assert (= ">" (CharAt var32 701)))
(assert (= "}" (CharAt var42 992)))
(assert (= "X" (CharAt var49 119)))
(assert (= "T" (CharAt var2 773)))
(assert (= "n" (CharAt var24 811)))
(assert (= "s" (CharAt var5 634)))
(assert (= "T" (CharAt var60 548)))
(assert (= "6" (CharAt var12 799)))
(assert (= "&" (CharAt var3 625)))
(assert (= "c" (CharAt var55 633)))
(assert (= "Q" (CharAt var44 504)))
(assert (= ";" (CharAt var55 355)))
(assert (= "E" (CharAt var57 422)))
(assert (= "Q" (CharAt var28 799)))
(assert (= "<" (CharAt var42 130)))
(assert (= "W" (CharAt var28 328)))
(assert (= "T" (CharAt var7 123)))
(assert (= "t" (CharAt var48 161)))
(assert (= ">" (CharAt var8 226)))
(assert (= ")" (CharAt var50 606)))
(assert (= "+" (CharAt var26 518)))
(assert (= "B" (CharAt var1 35)))
(assert (= "Y" (CharAt var56 631)))
(assert (= "V" (CharAt var56 772)))
(assert (= "/" (CharAt var46 400)))
(assert (= "&" (CharAt var58 163)))
(assert (= "1" (CharAt var7 39)))
(assert (= "=" (CharAt var3 675)))
(assert (= "1" (CharAt var37 461)))
(assert (= "." (CharAt var49 14)))
(assert (= "[" (CharAt var33 666)))
(assert (= "6" (CharAt var50 790)))
(assert (= "u" (CharAt var11 410)))
(assert (= "k" (CharAt var30 923)))
(assert (= "k" (CharAt var36 125)))
(assert (= "X" (CharAt var11 141)))
(assert (= ":" (CharAt var32 691)))
(assert (= "C" (CharAt var4 527)))
(assert (= "o" (CharAt var46 587)))
(assert (= "8" (CharAt var30 881)))
(assert (= "7" (CharAt var0 29)))
(assert (= "O" (CharAt var39 882)))
(assert (= "a" (CharAt var19 235)))
(assert (= "N" (CharAt var56 751)))
(assert (= "p" (CharAt var9 312)))
(assert (= "]" (CharAt var57 152)))
(assert (= "P" (CharAt var34 135)))
(assert (= "3" (CharAt var31 759)))
(assert (= "#" (CharAt var11 915)))
(assert (= "z" (CharAt var42 336)))
(assert (= "z" (CharAt var42 905)))
(assert (= "A" (CharAt var24 943)))
(assert (= "K" (CharAt var40 401)))
(assert (= "Z" (CharAt var14 236)))
(assert (= "|" (CharAt var56 959)))
(assert (= "R" (CharAt var38 480)))
(assert (= "i" (CharAt var31 587)))
(assert (= "a" (CharAt var20 664)))
(assert (= "N" (CharAt var57 316)))
(assert (= "M" (CharAt var58 367)))
(assert (= "D" (CharAt var45 657)))
(assert (= "z" (CharAt var0 607)))
(assert (= "D" (CharAt var44 404)))
(assert (= "[" (CharAt var33 619)))
(assert (= ";" (CharAt var39 954)))
(assert (= "t" (CharAt var11 602)))
(assert (= "^" (CharAt var7 530)))
(assert (= "(" (CharAt var35 208)))
(assert (= "x" (CharAt var2 84)))
(assert (= "Z" (CharAt var34 399)))
(assert (= "0" (CharAt var3 747)))
(assert (= ")" (CharAt var35 295)))
(assert (= "~" (CharAt var52 154)))
(assert (= "D" (CharAt var13 593)))
(assert (= "p" (CharAt var54 544)))
(assert (= "?" (CharAt var50 436)))
(assert (= ";" (CharAt var7 556)))
(assert (= ":" (CharAt var53 861)))
(assert (= "i" (CharAt var29 150)))
(assert (= "u" (CharAt var18 577)))
(assert (= "4" (CharAt var18 812)))
(assert (= "[" (CharAt var46 906)))
(assert (= "a" (CharAt var5 718)))
(assert (= "Z" (CharAt var17 523)))
(assert (= "I" (CharAt var34 192)))
(assert (= "|" (CharAt var19 788)))
(assert (= "a" (CharAt var53 490)))
(assert (= "_" (CharAt var26 956)))
(assert (= "$" (CharAt var26 151)))
(assert (= "V" (CharAt var41 717)))
(assert (= "\\" (CharAt var56 352)))
(assert (= "z" (CharAt var30 458)))
(assert (= "F" (CharAt var4 753)))
(assert (= "R" (CharAt var5 46)))
(assert (= ":" (CharAt var10 475)))
(assert (= "r" (CharAt var56 920)))
(assert (= "?" (CharAt var14 437)))
(assert (= "K" (CharAt var7 773)))
(assert (= "s" (CharAt var28 394)))
(assert (= "-" (CharAt var13 13)))
(assert (= "l" (CharAt var12 733)))
(assert (= "K" (CharAt var15 761)))
(assert (= "1" (CharAt var22 294)))
(assert (= "," (CharAt var56 116)))
(assert (= "M" (CharAt var33 325)))
(assert (= "&" (CharAt var55 503)))
(assert (= "O" (CharAt var45 837)))
(assert (= "\"" (CharAt var12 229)))
(assert (= "c" (CharAt var43 76)))
(assert (= "\"" (CharAt var37 179)))
(assert (= "v" (CharAt var7 714)))
(assert (= "T" (CharAt var31 517)))
(assert (= "\"" (CharAt var24 190)))
(assert (= ":" (CharAt var17 641)))
(assert (= "S" (CharAt var38 146)))
(assert (= ">" (CharAt var47 124)))
(assert (= "r" (CharAt var5 2)))
(assert (= "3" (CharAt var50 59)))
(assert (= "'" (CharAt var54 42)))
(assert (= "h" (CharAt var0 279)))
(assert (= "/" (CharAt var22 613)))
(assert (= "s" (CharAt var34 759)))
(assert (= "|" (CharAt var4 658)))
(assert (= "v" (CharAt var31 884)))
(assert (= "O" (CharAt var20 98)))
(assert (= "*" (CharAt var17 653)))
(assert (= "i" (CharAt var13 948)))
(assert (= "g" (CharAt var11 738)))
(assert (= "'" (CharAt var24 664)))
(assert (= "V" (CharAt var49 241)))
(assert (= "U" (CharAt var9 978)))
(assert (= "_" (CharAt var39 390)))
(assert (= "B" (CharAt var51 413)))
(assert (= "K" (CharAt var7 158)))
(assert (= "_" (CharAt var48 637)))
(assert (= "^" (CharAt var13 641)))
(assert (= "Z" (CharAt var55 80)))
(assert (= "C" (CharAt var27 916)))
(assert (= "~" (CharAt var53 920)))
(assert (= "!" (CharAt var30 623)))
(assert (= "C" (CharAt var28 212)))
(assert (= "y" (CharAt var16 24)))
(assert (= "]" (CharAt var42 161)))
(assert (= "H" (CharAt var30 956)))
(assert (= "<" (CharAt var3 718)))
(assert (= "G" (CharAt var15 832)))
(assert (= "\\" (CharAt var44 211)))
(assert (= "g" (CharAt var32 17)))
(assert (= "_" (CharAt var14 991)))
(assert (= "%" (CharAt var4 253)))
(assert (= "G" (CharAt var10 276)))
(assert (= "\\" (CharAt var57 75)))
(assert (= "v" (CharAt var4 750)))
(assert (= "n" (CharAt var58 549)))
(assert (= "\\" (CharAt var26 237)))
(assert (= "d" (CharAt var7 676)))
(assert (= "F" (CharAt var42 209)))
(assert (= "J" (CharAt var26 409)))
(assert (= "h" (CharAt var6 438)))
(assert (= "&" (CharAt var31 251)))
(assert (= "9" (CharAt var16 755)))
(assert (= "\\" (CharAt var5 5)))
(assert (= "$" (CharAt var1 271)))
(assert (= ">" (CharAt var10 501)))
(assert (= "x" (CharAt var19 793)))
(assert (= "k" (CharAt var41 823)))
(assert (= "1" (CharAt var35 828)))
(assert (= "h" (CharAt var7 344)))
(assert (= "9" (CharAt var4 466)))
(assert (= "g" (CharAt var3 431)))
(assert (= "N" (CharAt var2 904)))
(assert (= "Z" (CharAt var59 514)))
(assert (= "h" (CharAt var5 324)))
(assert (= "v" (CharAt var26 628)))
(assert (= "o" (CharAt var30 2)))
(assert (= "Q" (CharAt var4 960)))
(assert (= "Q" (CharAt var21 855)))
(assert (= "Y" (CharAt var0 48)))
(assert (= "A" (CharAt var33 52)))
(assert (= "*" (CharAt var19 184)))
(assert (= "=" (CharAt var53 607)))
(assert (= "/" (CharAt var18 713)))
(assert (= ">" (CharAt var26 797)))
(assert (= "V" (CharAt var55 735)))
(assert (= "W" (CharAt var45 54)))
(assert (= "P" (CharAt var21 319)))
(assert (= "," (CharAt var48 353)))
(assert (= "Y" (CharAt var37 553)))
(assert (= "A" (CharAt var10 164)))
(assert (= "5" (CharAt var18 321)))
(assert (= "!" (CharAt var43 490)))
(assert (= "," (CharAt var29 154)))
(assert (= "%" (CharAt var23 95)))
(assert (= "H" (CharAt var44 371)))
(assert (= "7" (CharAt var46 673)))
(assert (= ")" (CharAt var44 500)))
(assert (= "K" (CharAt var38 18)))
(assert (= "<" (CharAt var44 807)))
(assert (= "," (CharAt var19 447)))
(assert (= "6" (CharAt var60 986)))
(assert (= "." (CharAt var58 839)))
(assert (= "X" (CharAt var46 708)))
(assert (= "f" (CharAt var10 431)))
(assert (= "Y" (CharAt var4 666)))
(assert (= "E" (CharAt var39 417)))
(assert (= ">" (CharAt var44 444)))
(assert (= "p" (CharAt var40 534)))
(assert (= "D" (CharAt var49 451)))
(assert (= "<" (CharAt var46 945)))
(assert (= "\"" (CharAt var13 962)))
(assert (= "k" (CharAt var25 425)))
(assert (= "g" (CharAt var10 28)))
(assert (= "b" (CharAt var23 572)))
(assert (= "4" (CharAt var53 230)))
(assert (= "9" (CharAt var47 863)))
(assert (= "m" (CharAt var48 380)))
(assert (= "C" (CharAt var33 182)))
(assert (= "C" (CharAt var47 930)))
(assert (= "!" (CharAt var29 917)))
(assert (= "u" (CharAt var11 561)))
(assert (= "/" (CharAt var42 472)))
(assert (= "+" (CharAt var17 265)))
(assert (= "u" (CharAt var40 723)))
(assert (= "+" (CharAt var37 838)))
(assert (= "B" (CharAt var5 336)))
(assert (= "s" (CharAt var37 338)))
(assert (= "b" (CharAt var55 668)))
(assert (= "C" (CharAt var22 550)))
(assert (= "6" (CharAt var5 689)))
(assert (= "-" (CharAt var49 22)))
(assert (= "V" (CharAt var33 845)))
(assert (= "Q" (CharAt var15 181)))
(assert (= "<" (CharAt var15 539)))
(assert (= "," (CharAt var18 651)))
(assert (= "P" (CharAt var35 599)))
(assert (= "k" (CharAt var38 375)))
(assert (= "'" (CharAt var38 72)))
(assert (= "r" (CharAt var31 381)))
(assert (= "2" (CharAt var18 537)))
(assert (= "S" (CharAt var25 796)))
(assert (= ">" (CharAt var57 79)))
(assert (= "k" (CharAt var29 68)))
(assert (= "@" (CharAt var28 669)))
(assert (= "{" (CharAt var3 596)))
(assert (= "6" (CharAt var7 853)))
(assert (= "\"" (CharAt var38 754)))
(assert (= "}" (CharAt var38 617)))
(assert (= "m" (CharAt var6 736)))
(assert (= "8" (CharAt var34 757)))
(assert (= ">" (CharAt var32 746)))
(assert (= "D" (CharAt var48 663)))
(assert (= "J" (CharAt var14 681)))
(assert (= "H" (CharAt var15 609)))
(assert (= "?" (CharAt var39 469)))
(assert (= "u" (CharAt var20 811)))
(assert (= "?" (CharAt var33 908)))
(assert (= "s" (CharAt var4 648)))
(assert (= "9" (CharAt var55 536)))
(assert (= "{" (CharAt var34 519)))
(assert (= "1" (CharAt var39 839)))
(assert (= "J" (CharAt var35 891)))
(assert (= "6" (CharAt var58 143)))
(assert (= "O" (CharAt var9 666)))
(assert (= "?" (CharAt var55 81)))
(assert (= "$" (CharAt var45 346)))
(assert (= "\\" (CharAt var57 194)))
(assert (= "-" (CharAt var50 432)))
(assert (= "o" (CharAt var10 709)))
(assert (= "U" (CharAt var37 372)))
(assert (= "L" (CharAt var8 89)))
(assert (= "P" (CharAt var26 4)))
(assert (= "X" (CharAt var29 187)))
(assert (= "X" (CharAt var38 883)))
(assert (= "_" (CharAt var16 130)))
(assert (= "F" (CharAt var52 89)))
(assert (= "s" (CharAt var15 112)))
(assert (= "8" (CharAt var40 651)))
(assert (= "8" (CharAt var19 698)))
(assert (= "`" (CharAt var12 926)))
(assert (= "$" (CharAt var43 585)))
(assert (= "u" (CharAt var22 308)))
(assert (= "*" (CharAt var22 350)))
(assert (= "~" (CharAt var46 252)))
(assert (= "y" (CharAt var23 248)))
(assert (= "K" (CharAt var39 362)))
(assert (= "z" (CharAt var9 494)))
(assert (= "7" (CharAt var43 667)))
(assert (= "T" (CharAt var27 420)))
(assert (= "'" (CharAt var50 699)))
(assert (= "Q" (CharAt var29 734)))
(assert (= "7" (CharAt var29 276)))
(assert (= ">" (CharAt var26 360)))
(assert (= "d" (CharAt var8 366)))
(assert (= "t" (CharAt var14 8)))
(assert (= "t" (CharAt var20 80)))
(assert (= "T" (CharAt var20 203)))
(assert (= "[" (CharAt var5 912)))
(assert (= "9" (CharAt var30 464)))
(assert (= "<" (CharAt var29 143)))
(assert (= "L" (CharAt var55 600)))
(assert (= "]" (CharAt var23 654)))
(assert (= "z" (CharAt var6 314)))
(assert (= "%" (CharAt var0 754)))
(assert (= "-" (CharAt var32 948)))
(assert (= "m" (CharAt var13 591)))
(assert (= "(" (CharAt var18 345)))
(assert (= "M" (CharAt var18 363)))
(assert (= "Y" (CharAt var4 30)))
(assert (= "s" (CharAt var52 999)))
(assert (= "8" (CharAt var12 902)))
(assert (= "L" (CharAt var55 478)))
(assert (= "c" (CharAt var57 420)))
(assert (= "*" (CharAt var53 865)))
(assert (= "Q" (CharAt var10 773)))
(assert (= "K" (CharAt var51 487)))
(assert (= "6" (CharAt var9 486)))
(assert (= "Q" (CharAt var21 44)))
(assert (= "_" (CharAt var22 174)))
(assert (= "T" (CharAt var25 918)))
(assert (= "y" (CharAt var48 196)))
(assert (= "R" (CharAt var26 774)))
(assert (= "'" (CharAt var3 933)))
(assert (= "@" (CharAt var52 229)))
(assert (= "k" (CharAt var51 711)))
(assert (= "W" (CharAt var12 75)))
(assert (= "D" (CharAt var29 520)))
(assert (= "t" (CharAt var25 588)))
(assert (= ":" (CharAt var37 168)))
(assert (= "+" (CharAt var31 20)))
(assert (= "]" (CharAt var20 924)))
(assert (= "\\" (CharAt var45 722)))
(assert (= "v" (CharAt var1 93)))
(assert (= "X" (CharAt var59 947)))
(assert (= "x" (CharAt var48 734)))
(assert (= "V" (CharAt var54 964)))
(assert (= "@" (CharAt var29 511)))
(assert (= "G" (CharAt var38 684)))
(assert (= "\"" (CharAt var4 524)))
(assert (= "/" (CharAt var14 755)))
(assert (= "S" (CharAt var50 118)))
(assert (= "d" (CharAt var2 939)))
(assert (= "E" (CharAt var2 965)))
(assert (= "F" (CharAt var51 388)))
(assert (= "d" (CharAt var23 636)))
(assert (= "g" (CharAt var36 581)))
(assert (= "V" (CharAt var7 412)))
(assert (= "l" (CharAt var18 754)))
(assert (= "O" (CharAt var2 201)))
(assert (= "a" (CharAt var12 221)))
(assert (= "T" (CharAt var13 368)))
(assert (= "[" (CharAt var42 735)))
(assert (= "b" (CharAt var8 113)))
(assert (= "@" (CharAt var40 500)))
(assert (= "+" (CharAt var50 561)))
(assert (= "g" (CharAt var44 684)))
(assert (= "b" (CharAt var59 77)))
(assert (= "B" (CharAt var46 53)))
(assert (= "9" (CharAt var20 389)))
(assert (= "4" (CharAt var45 273)))
(assert (= "o" (CharAt var31 8)))
(assert (= "8" (CharAt var46 110)))
(assert (= "7" (CharAt var26 483)))
(assert (= "9" (CharAt var37 392)))
(assert (= "9" (CharAt var46 867)))
(assert (= "o" (CharAt var0 303)))
(assert (= "d" (CharAt var34 485)))
(assert (= "_" (CharAt var49 231)))
(assert (= "I" (CharAt var45 463)))
(assert (= "|" (CharAt var17 771)))
(assert (= "q" (CharAt var13 327)))
(assert (= "i" (CharAt var42 659)))
(assert (= "m" (CharAt var26 389)))
(assert (= "}" (CharAt var44 878)))
(assert (= "t" (CharAt var8 674)))
(assert (= "6" (CharAt var6 640)))
(assert (= "/" (CharAt var48 155)))
(assert (= ">" (CharAt var57 91)))
(assert (= "0" (CharAt var27 612)))
(assert (= ";" (CharAt var14 822)))
(assert (= "W" (CharAt var54 936)))
(assert (= "F" (CharAt var9 878)))
(assert (= "i" (CharAt var8 298)))
(assert (= "(" (CharAt var13 470)))
(assert (= "l" (CharAt var14 701)))
(assert (= "w" (CharAt var14 467)))
(assert (= "-" (CharAt var31 982)))
(assert (= "V" (CharAt var30 397)))
(assert (= "m" (CharAt var50 917)))
(assert (= "@" (CharAt var35 829)))
(assert (= "7" (CharAt var20 428)))
(assert (= "d" (CharAt var13 165)))
(assert (= "t" (CharAt var28 594)))
(assert (= "}" (CharAt var17 511)))
(assert (= "8" (CharAt var20 322)))
(assert (= "(" (CharAt var51 595)))
(assert (= "|" (CharAt var5 538)))
(assert (= "~" (CharAt var37 590)))
(assert (= "@" (CharAt var51 20)))
(assert (= ";" (CharAt var45 702)))
(assert (= "7" (CharAt var10 478)))
(assert (= "<" (CharAt var22 852)))
(assert (= "'" (CharAt var53 323)))
(assert (= "9" (CharAt var60 515)))
(assert (= "l" (CharAt var23 14)))
(assert (= "y" (CharAt var32 494)))
(assert (= "c" (CharAt var38 885)))
(assert (= "N" (CharAt var59 633)))
(assert (= "J" (CharAt var21 181)))
(assert (= "3" (CharAt var50 80)))
(assert (= "2" (CharAt var22 744)))
(check-sat)